certificates/rado_a11_c201_N22.cnf
c Rad2 upper bound instance: x1 + 11*x2 - x3 = 201, interval [1,22]
p cnf 22 88
1 9 19 0
-1 -9 -19 0
1 20 0
-1 -20 0
2 10 19 0
-2 -10 -19 0
2 20 21 0
-2 -20 -21 0
3 11 19 0
-3 -11 -19 0
3 20 22 0
-3 -20 -22 0
1 4 18 0
-1 -4 -18 0
4 12 19 0
-4 -12 -19 0
2 5 18 0
-2 -5 -18 0
5 13 19 0
-5 -13 -19 0
3 6 18 0
-3 -6 -18 0
6 14 19 0
-6 -14 -19 0
4 7 18 0
-4 -7 -18 0
7 15 19 0
-7 -15 -19 0
5 8 18 0
-5 -8 -18 0
8 16 19 0
-8 -16 -19 0
6 9 18 0
-6 -9 -18 0
9 17 19 0
-9 -17 -19 0
7 10 18 0
-7 -10 -18 0
10 18 19 0
-10 -18 -19 0
8 11 18 0
-8 -11 -18 0
11 19 0
-11 -19 0
9 12 18 0
-9 -12 -18 0
12 19 20 0
-12 -19 -20 0
10 13 18 0
-10 -13 -18 0
13 19 21 0
-13 -19 -21 0
11 14 18 0
-11 -14 -18 0
14 19 22 0
-14 -19 -22 0
1 15 17 0
-1 -15 -17 0
12 15 18 0
-12 -15 -18 0
2 16 17 0
-2 -16 -17 0
13 16 18 0
-13 -16 -18 0
3 17 0
-3 -17 0
14 17 18 0
-14 -17 -18 0
4 17 18 0
-4 -17 -18 0
15 18 0
-15 -18 0
5 17 19 0
-5 -17 -19 0
16 18 19 0
-16 -18 -19 0
6 17 20 0
-6 -17 -20 0
17 18 20 0
-17 -18 -20 0
7 17 21 0
-7 -17 -21 0
18 21 0
-18 -21 0
8 17 22 0
-8 -17 -22 0
18 19 22 0
-18 -19 -22 0
