certificates/rado_a11_c201_N22.drat
-20 18 -22 0
18 -22 0
d -20 18 -22 0
-22 0
20 -18 0
-18 0
15 0
21 0
19 0
-11 0
-13 0
-7 0
8 0
14 0
10 0
16 0
4 0
0
